% demand
num_movements = 34;
loading_factor = [1000, 950, 1100, 1350, 1500, 1100, 900, 1500, 1000, 1200, 1700, 1500, 1600, 1000, 1750, 950, 1350, 1150, 1850, 1900, 1550, 1650, 1450, 1000, 1700, 1000, 1450, 1400, 1250, 1150, 900, 1950, 1450, 1550];
pickup_time = [0, 0, 0, 0, 0, 0, 2, 2, 2, 3, 3, 3, 3, 3, 4, 5, 7, 7, 8, 8, 8, 8, 9, 9, 10, 10, 10, 10, 10, 13, 13, 13, 13, 13];
delivery_time = [1, 2, 3, 2, 1, 2, 3, 3, 3, 4, 6, 4, 8, 8, 6, 6, 8, 8, 9, 9, 9, 9, 10, 10, 12, 12, 12, 12, 12, 14, 14, 14, 14, 14];

% transporter definition
total_capacity = 7000;
num_decks = 3;
capacity = [3000, 1000, 3000];

% ways out of decks
num_ways_out = 1;
paths_out = array3d(decks, ways_out, decks, [
% ways out of deck d1
2, 3, 0, 

% ways out of deck d2
3, 0, 0, 

% ways out of deck d3
0, 0, 0,	

]);

